InboundTrucks  = 12;
OutboundTrucks = 8;
InboundDoors   = 2;
OutboundDoors  = 1;
ReleaseTime    = [32,13,19,4,23,14,29,10,6,19,28,15];
UnloadTime     = [18,13,13,24,21,5,25,11,9,25,26,16];
LoadTime       = [3,13,4,17,15,20,3,17];
TransferTime   = [| 10,8,5,6,10,1,9,6 | 7,7,3,6,7,2,8,2 | 10,1,1,4,8,7,5,6 | 8,10,4,1,4,10,6,8 | 2,8,6,10,2,4,1,8 | 2,6,2,5,5,10,9,4 | 7,10,10,4,4,3,3,7 | 6,6,8,3,7,6,1,7 | 2,9,10,7,3,1,8,3 | 7,3,9,3,2,10,9,2 | 6,2,3,1,8,10,7,6 | 2,5,9,2,9,2,8,5 |];
